experiments/knapsack_bounded/knapsack_bounded_10_9.mps
NAME
ROWS
 N  OBJ
 L  c1
 L  c2
 L  c3
 L  c4
 L  c5
 L  c6
 L  c7
 L  c8
 L  c9
 L  c10
 L  c11
COLUMNS
    MARKER    'MARKER'                 'INTORG'
    x[1]      c1        295
    x[1]      c2        1
    x[1]      OBJ       -871
    x[2]      c1        110
    x[2]      c3        1
    x[2]      OBJ       -240
    x[3]      c1        84
    x[3]      c4        1
    x[3]      OBJ       -404
    x[4]      c1        543
    x[4]      c5        1
    x[4]      OBJ       -452
    x[5]      c1        317
    x[5]      c6        1
    x[5]      OBJ       -920
    x[6]      c1        607
    x[6]      c7        1
    x[6]      OBJ       -795
    x[7]      c1        90
    x[7]      c8        1
    x[7]      OBJ       -302
    x[8]      c1        195
    x[8]      c9        1
    x[8]      OBJ       -927
    x[9]      c1        561
    x[9]      c10       1
    x[9]      OBJ       -293
    x[10]     c1        99
    x[10]     c11       1
    x[10]     OBJ       -317
    MARKER    'MARKER'                 'INTEND'
RHS
    rhs       c1        1450
    rhs       c2        4
    rhs       c3        4
    rhs       c4        1
    rhs       c5        8
    rhs       c6        2
    rhs       c7        9
    rhs       c8        5
    rhs       c9        1
    rhs       c10       5
    rhs       c11       6
RANGES
BOUNDS
 LO bounds    x[1]      0
 PL bounds    x[1]
 LO bounds    x[2]      0
 PL bounds    x[2]
 LO bounds    x[3]      0
 PL bounds    x[3]
 LO bounds    x[4]      0
 PL bounds    x[4]
 LO bounds    x[5]      0
 PL bounds    x[5]
 LO bounds    x[6]      0
 PL bounds    x[6]
 LO bounds    x[7]      0
 PL bounds    x[7]
 LO bounds    x[8]      0
 PL bounds    x[8]
 LO bounds    x[9]      0
 PL bounds    x[9]
 LO bounds    x[10]     0
 PL bounds    x[10]
ENDATA
